
  16    0


   0   8 2 3 5 11 12 13 14 15 
  10   4 10 7 6 4 
   8   2 9 7 
   6   1 8 
   8   1 6 
   3   1 16
   4   1 16
   5   1 16
   6   1 16
   4   1 16
   4   1 16
   2   1 16
  10   1 16
   2   1 16
   7   1 16
   0   0 
